(set-logic QF_NRA)
(set-info :source |Benchmarks generated from hycomp (https://es-static.fbk.eu/tools/hycomp/). BMC instances of non-linear hybrid automata taken from: Alessandro Cimatti, Sergio Mover, Stefano Tonetta, A quantifier-free SMT encoding of non-linear hybrid automata, FMCAD 2012 and Alessandro Cimatti, Sergio Mover, Stefano Tonetta, Quantier-free encoding of invariants for Hybrid Systems, Formal Methods in System Design. This instance solves a BMC problem of depth 1 and uses the encoding obtained with quantifier elimination using qepcad encoding. Contacts: Sergio Mover (mover@fbk.eu), Stefano Tonetta (tonettas@fbk.eu), Alessandro Cimatti (cimatti@fbk.eu).|)
(set-info :smt-lib-version 2.0)
(set-info :category "industrial")
(set-info :status unsat)
;; MathSAT API call trace
;; generated on Mon Mar 19 10:48:41 2012
(declare-fun b.counter.1__AT0 () Bool)
(declare-fun b.counter.3__AT0 () Bool)
(declare-fun b.delta__AT1 () Real)
(declare-fun b.EVENT.0__AT1 () Bool)
(declare-fun b.EVENT.1__AT1 () Bool)
(declare-fun b.EVENT.0__AT0 () Bool)
(declare-fun b.speed_y__AT1 () Real)
(declare-fun b.event_is_timed__AT1 () Bool)
(declare-fun speed_loss__AT0 () Real)
(declare-fun b.counter.1__AT1 () Bool)
(declare-fun b.counter.2__AT1 () Bool)
(declare-fun b.counter.2__AT0 () Bool)
(declare-fun b.time__AT0 () Real)
(declare-fun b.speed_y__AT0 () Real)
(declare-fun b.EVENT.1__AT0 () Bool)
(declare-fun b.time__AT1 () Real)
(declare-fun b.y__AT1 () Real)
(declare-fun b.counter.0__AT1 () Bool)
(declare-fun b.delta__AT0 () Real)
(declare-fun b.counter.3__AT1 () Bool)
(declare-fun b.y__AT0 () Real)
(declare-fun b.event_is_timed__AT0 () Bool)
(declare-fun b.counter.0__AT0 () Bool)
(assert (let ((.def_233 (* 49.0 b.delta__AT1)))
(let ((.def_234 (* b.delta__AT1 .def_233)))
(let ((.def_235 (* (- 1.0) .def_234)))
(let ((.def_231 (* 10.0 b.delta__AT1)))
(let ((.def_232 (* b.speed_y__AT1 .def_231)))
(let ((.def_236 (+ .def_232 .def_235)))
(let ((.def_237 (* 10.0 b.y__AT1)))
(let ((.def_239 (+ .def_237 .def_236)))
(let ((.def_240 (<= 0.0 .def_239)))
(let ((.def_220 (<= 0.0 b.y__AT1)))
(let ((.def_241 (and .def_220 .def_240)))
(let ((.def_229 (<= 0.0 b.delta__AT1)))
(let ((.def_230 (not .def_229)))
(let ((.def_242 (or .def_230 .def_241)))
(let ((.def_217 (not b.EVENT.0__AT1)))
(let ((.def_215 (not b.EVENT.1__AT1)))
(let ((.def_226 (and .def_215 .def_217)))
(let ((.def_227 (not .def_226)))
(let ((.def_243 (or .def_227 .def_242)))
(let ((.def_55 (<= speed_loss__AT0 (/ 1 2))))
(let ((.def_52 (<= (/ 1 10) speed_loss__AT0)))
(let ((.def_56 (and .def_52 .def_55)))
(let ((.def_221 (and .def_56 .def_220)))
(let ((.def_218 (or .def_215 .def_217)))
(let ((.def_6 (not b.counter.0__AT1)))
(let ((.def_4 (not b.counter.1__AT1)))
(let ((.def_208 (or .def_4 .def_6)))
(let ((.def_212 (or b.counter.3__AT1 .def_208)))
(let ((.def_209 (or b.counter.2__AT1 .def_208)))
(let ((.def_9 (not b.counter.2__AT1)))
(let ((.def_207 (or .def_6 .def_9)))
(let ((.def_210 (and .def_207 .def_209)))
(let ((.def_111 (not b.counter.3__AT1)))
(let ((.def_211 (or .def_111 .def_210)))
(let ((.def_213 (and .def_211 .def_212)))
(let ((.def_219 (and .def_213 .def_218)))
(let ((.def_222 (and .def_219 .def_221)))
(let ((.def_65 (<= 0.0 b.delta__AT0)))
(let ((.def_46 (not b.EVENT.0__AT0)))
(let ((.def_44 (not b.EVENT.1__AT0)))
(let ((.def_62 (and .def_44 .def_46)))
(let ((.def_63 (not .def_62)))
(let ((.def_203 (or .def_63 .def_65)))
(let ((.def_204 (or b.EVENT.1__AT0 .def_203)))
(let ((.def_133 (= b.counter.0__AT1 b.counter.0__AT0)))
(let ((.def_131 (= b.counter.1__AT1 b.counter.1__AT0)))
(let ((.def_129 (= b.counter.2__AT1 b.counter.2__AT0)))
(let ((.def_128 (= b.counter.3__AT0 b.counter.3__AT1)))
(let ((.def_130 (and .def_128 .def_129)))
(let ((.def_132 (and .def_130 .def_131)))
(let ((.def_134 (and .def_132 .def_133)))
(let ((.def_200 (or .def_63 .def_134)))
(let ((.def_201 (or b.EVENT.1__AT0 .def_200)))
(let ((.def_188 (* (- 5.0) b.speed_y__AT1)))
(let ((.def_189 (* (- 49.0) b.delta__AT0)))
(let ((.def_193 (+ .def_189 .def_188)))
(let ((.def_191 (* 5.0 b.speed_y__AT0)))
(let ((.def_194 (+ .def_191 .def_193)))
(let ((.def_195 (= .def_194 0.0 )))
(let ((.def_176 (* b.speed_y__AT0 b.delta__AT0)))
(let ((.def_177 (* 10.0 .def_176)))
(let ((.def_173 (* b.delta__AT0 b.delta__AT0)))
(let ((.def_175 (* (- 49.0) .def_173)))
(let ((.def_178 (+ .def_175 .def_177)))
(let ((.def_180 (* (- 10.0) b.y__AT1)))
(let ((.def_183 (+ .def_180 .def_178)))
(let ((.def_75 (* 10.0 b.y__AT0)))
(let ((.def_184 (+ .def_75 .def_183)))
(let ((.def_185 (= .def_184 0.0 )))
(let ((.def_196 (and .def_185 .def_195)))
(let ((.def_197 (or .def_63 .def_196)))
(let ((.def_139 (= b.y__AT0 b.y__AT1)))
(let ((.def_127 (= b.speed_y__AT0 b.speed_y__AT1)))
(let ((.def_170 (and .def_127 .def_139)))
(let ((.def_167 (= b.delta__AT0 0.0 )))
(let ((.def_168 (and .def_62 .def_167)))
(let ((.def_169 (not .def_168)))
(let ((.def_171 (or .def_169 .def_170)))
(let ((.def_172 (or b.EVENT.1__AT0 .def_171)))
(let ((.def_198 (and .def_172 .def_197)))
(let ((.def_149 (= b.time__AT0 b.time__AT1)))
(let ((.def_161 (and .def_139 .def_149)))
(let ((.def_162 (and .def_127 .def_161)))
(let ((.def_163 (and .def_134 .def_162)))
(let ((.def_164 (or .def_44 .def_163)))
(let ((.def_152 (* (- 1.0) b.time__AT1)))
(let ((.def_155 (+ b.delta__AT0 .def_152)))
(let ((.def_156 (+ b.time__AT0 .def_155)))
(let ((.def_157 (= .def_156 0.0 )))
(let ((.def_158 (or .def_63 .def_157)))
(let ((.def_159 (or b.EVENT.1__AT0 .def_158)))
(let ((.def_150 (or .def_62 .def_149)))
(let ((.def_151 (or b.EVENT.1__AT0 .def_150)))
(let ((.def_160 (and .def_151 .def_159)))
(let ((.def_165 (and .def_160 .def_164)))
(let ((.def_145 (= .def_63 b.event_is_timed__AT1)))
(let ((.def_143 (= b.event_is_timed__AT0 .def_62)))
(let ((.def_146 (and .def_143 .def_145)))
(let ((.def_135 (and .def_127 .def_134)))
(let ((.def_84 (<= 0.0 b.speed_y__AT0)))
(let ((.def_85 (not .def_84)))
(let ((.def_83 (= b.y__AT0 0.0 )))
(let ((.def_86 (and .def_83 .def_85)))
(let ((.def_136 (or .def_86 .def_135)))
(let ((.def_102 (or .def_6 b.counter.0__AT0)))
(let ((.def_27 (not b.counter.0__AT0)))
(let ((.def_101 (or b.counter.0__AT1 .def_27)))
(let ((.def_103 (and .def_101 .def_102)))
(let ((.def_104 (and .def_4 .def_103)))
(let ((.def_105 (or b.counter.1__AT0 .def_104)))
(let ((.def_25 (not b.counter.1__AT0)))
(let ((.def_100 (or b.counter.1__AT1 .def_25)))
(let ((.def_106 (and .def_100 .def_105)))
(let ((.def_119 (and .def_9 .def_106)))
(let ((.def_120 (or b.counter.2__AT0 .def_119)))
(let ((.def_114 (and .def_4 .def_27)))
(let ((.def_115 (or b.counter.1__AT0 .def_114)))
(let ((.def_116 (and .def_100 .def_115)))
(let ((.def_117 (and b.counter.2__AT1 .def_116)))
(let ((.def_30 (not b.counter.2__AT0)))
(let ((.def_118 (or .def_30 .def_117)))
(let ((.def_121 (and .def_118 .def_120)))
(let ((.def_122 (and b.counter.3__AT1 .def_121)))
(let ((.def_123 (or b.counter.3__AT0 .def_122)))
(let ((.def_107 (and b.counter.2__AT1 .def_106)))
(let ((.def_108 (or b.counter.2__AT0 .def_107)))
(let ((.def_96 (or b.counter.1__AT1 b.counter.1__AT0)))
(let ((.def_94 (and .def_4 b.counter.0__AT1)))
(let ((.def_95 (or .def_25 .def_94)))
(let ((.def_97 (and .def_95 .def_96)))
(let ((.def_98 (and .def_9 .def_97)))
(let ((.def_99 (or .def_30 .def_98)))
(let ((.def_109 (and .def_99 .def_108)))
(let ((.def_112 (and .def_109 .def_111)))
(let ((.def_33 (not b.counter.3__AT0)))
(let ((.def_113 (or .def_33 .def_112)))
(let ((.def_124 (and .def_113 .def_123)))
(let ((.def_89 (* (- 1.0) speed_loss__AT0)))
(let ((.def_90 (+ 1.0 .def_89)))
(let ((.def_88 (* (- 1.0) b.speed_y__AT0)))
(let ((.def_91 (* .def_88 .def_90)))
(let ((.def_93 (= .def_91 b.speed_y__AT1)))
(let ((.def_125 (and .def_93 .def_124)))
(let ((.def_87 (not .def_86)))
(let ((.def_126 (or .def_87 .def_125)))
(let ((.def_137 (and .def_126 .def_136)))
(let ((.def_140 (and .def_137 .def_139)))
(let ((.def_141 (or .def_62 .def_140)))
(let ((.def_142 (or b.EVENT.1__AT0 .def_141)))
(let ((.def_147 (and .def_142 .def_146)))
(let ((.def_166 (and .def_147 .def_165)))
(let ((.def_199 (and .def_166 .def_198)))
(let ((.def_202 (and .def_199 .def_201)))
(let ((.def_205 (and .def_202 .def_204)))
(let ((.def_206 (and .def_44 .def_205)))
(let ((.def_223 (and .def_206 .def_222)))
(let ((.def_28 (and .def_25 .def_27)))
(let ((.def_31 (and .def_28 .def_30)))
(let ((.def_224 (and .def_31 .def_223)))
(let ((.def_70 (* 49.0 b.delta__AT0)))
(let ((.def_71 (* b.delta__AT0 .def_70)))
(let ((.def_73 (* (- 1.0) .def_71)))
(let ((.def_67 (* 10.0 b.delta__AT0)))
(let ((.def_68 (* b.speed_y__AT0 .def_67)))
(let ((.def_74 (+ .def_68 .def_73)))
(let ((.def_77 (+ .def_75 .def_74)))
(let ((.def_78 (<= 0.0 .def_77)))
(let ((.def_57 (<= 0.0 b.y__AT0)))
(let ((.def_79 (and .def_57 .def_78)))
(let ((.def_66 (not .def_65)))
(let ((.def_80 (or .def_66 .def_79)))
(let ((.def_81 (or .def_63 .def_80)))
(let ((.def_58 (and .def_56 .def_57)))
(let ((.def_47 (or .def_44 .def_46)))
(let ((.def_37 (or .def_25 .def_27)))
(let ((.def_41 (or b.counter.3__AT0 .def_37)))
(let ((.def_38 (or b.counter.2__AT0 .def_37)))
(let ((.def_36 (or .def_27 .def_30)))
(let ((.def_39 (and .def_36 .def_38)))
(let ((.def_40 (or .def_33 .def_39)))
(let ((.def_42 (and .def_40 .def_41)))
(let ((.def_48 (and .def_42 .def_47)))
(let ((.def_59 (and .def_48 .def_58)))
(let ((.def_34 (and .def_31 .def_33)))
(let ((.def_22 (= b.speed_y__AT0 0.0 )))
(let ((.def_19 (= b.y__AT0 10.0 )))
(let ((.def_14 (= b.time__AT0 0.0 )))
(let ((.def_16 (and .def_14 b.event_is_timed__AT0)))
(let ((.def_20 (and .def_16 .def_19)))
(let ((.def_23 (and .def_20 .def_22)))
(let ((.def_35 (and .def_23 .def_34)))
(let ((.def_60 (and .def_35 .def_59)))
(let ((.def_7 (and .def_4 .def_6)))
(let ((.def_10 (and .def_7 .def_9)))
(let ((.def_11 (not .def_10)))
(let ((.def_61 (and .def_11 .def_60)))
(let ((.def_82 (and .def_61 .def_81)))
(let ((.def_225 (and .def_82 .def_224)))
(let ((.def_244 (and .def_225 .def_243)))
.def_244))))))))))))))))))))))))))))))))))))))))))))))))))))))))))))))))))))))))))))))))))))))))))))))))))))))))))))))))))))))))))))))))))))))))))))))))))))))))))))))))))))))))))))))))))))))))))))))))))))))))
(check-sat)
(exit)
